p cnf 130 196
-66 63 0
-66 64 0
66 -63 -64 0
-67 61 0
-67 62 0
67 -61 -62 0
-68 59 0
-68 60 0
68 -59 -60 0
-69 57 0
-69 58 0
69 -57 -58 0
-70 55 0
-70 56 0
70 -55 -56 0
-71 53 0
-71 54 0
71 -53 -54 0
-72 47 0
-72 48 0
72 -47 -48 0
-73 45 0
-73 46 0
73 -45 -46 0
-74 41 0
-74 42 0
74 -41 -42 0
-75 33 0
-75 34 0
75 -33 -34 0
-76 35 0
-76 36 0
76 -35 -36 0
-77 -75 0
-77 -76 0
77 75 76 0
-78 37 0
-78 38 0
78 -37 -38 0
-79 77 0
-79 -78 0
79 -77 78 0
-80 39 0
-80 40 0
80 -39 -40 0
-81 79 0
-81 -80 0
81 -79 80 0
-82 -74 0
-82 81 0
82 74 -81 0
-83 43 0
-83 44 0
83 -43 -44 0
-84 82 0
-84 -83 0
84 -82 83 0
-85 -73 0
-85 84 0
85 73 -84 0
-86 -72 0
-86 85 0
86 72 -85 0
-87 49 0
-87 50 0
87 -49 -50 0
-88 86 0
-88 -87 0
88 -86 87 0
-89 51 0
-89 52 0
89 -51 -52 0
-90 88 0
-90 -89 0
90 -88 89 0
-91 -71 0
-91 90 0
91 71 -90 0
-92 -70 0
-92 91 0
92 70 -91 0
-93 -69 0
-93 92 0
93 69 -92 0
-94 -68 0
-94 93 0
94 68 -93 0
-95 -67 0
-95 94 0
95 67 -94 0
-96 -66 0
-96 95 0
96 66 -95 0
-97 -65 0
-97 -96 0
97 65 96 0
-98 29 0
-98 30 0
98 -29 -30 0
-99 23 0
-99 24 0
99 -23 -24 0
-100 19 0
-100 20 0
100 -19 -20 0
-101 15 0
-101 16 0
101 -15 -16 0
-102 13 0
-102 14 0
102 -13 -14 0
-103 11 0
-103 12 0
103 -11 -12 0
-104 9 0
-104 10 0
104 -9 -10 0
-105 7 0
-105 8 0
105 -7 -8 0
-106 3 0
-106 4 0
106 -3 -4 0
-107 1 0
-107 2 0
107 -1 -2 0
-108 -106 0
-108 -107 0
108 106 107 0
-109 5 0
-109 6 0
109 -5 -6 0
-110 108 0
-110 -109 0
110 -108 109 0
-111 -105 0
-111 110 0
111 105 -110 0
-112 -104 0
-112 111 0
112 104 -111 0
-113 -103 0
-113 112 0
113 103 -112 0
-114 -102 0
-114 113 0
114 102 -113 0
-115 -101 0
-115 114 0
115 101 -114 0
-116 17 0
-116 18 0
116 -17 -18 0
-117 115 0
-117 -116 0
117 -115 116 0
-118 -100 0
-118 117 0
118 100 -117 0
-119 21 0
-119 22 0
119 -21 -22 0
-120 118 0
-120 -119 0
120 -118 119 0
-121 -99 0
-121 120 0
121 99 -120 0
-122 25 0
-122 26 0
122 -25 -26 0
-123 121 0
-123 -122 0
123 -121 122 0
-124 27 0
-124 28 0
124 -27 -28 0
-125 123 0
-125 -124 0
125 -123 124 0
-126 -98 0
-126 125 0
126 98 -125 0
-127 31 0
-127 32 0
127 -31 -32 0
-128 126 0
-128 -127 0
128 -126 127 0
-129 65 0
-129 -128 0
129 -65 128 0
-130 -97 0
-130 -129 0
130 97 129 0
-130 0
